c instance by G2
c solution = 00010110101
c Known solution cost is 519 
p cnf 11 30
w 20 35 39 95 52 26 20 2 84 67 79
1 -10 5 0
-3 -5 -9 0
-6 1 -3 0
-10 7 -6 0
-3 9 -4 0
4 -1 -7 0
-2 6 4 0
-7 9 -10 0
-2 -8 -3 0
-8 -3 -10 0
11 -9 -6 0
-3 2 4 0
5 -6 -3 0
-11 3 -2 0
8 10 9 0
10 4 6 0
-2 -11 1 0
-4 1 6 0
6 1 2 0
1 8 -2 0
7 -11 9 0
-7 5 4 0
-9 6 7 0
-11 -6 -8 0
1 -10 5 0
-1 2 8 0
-2 11 5 0
7 1 -9 0
-11 -6 -10 0
-5 3 10 0
